/*********************************************
 * OPL 12.6.0.0 Data
 * Author: Adrian Rodriguez Bazaga, Pau Rodriguez Esmerats
 * Creation Date: 21/11/2017 at 23:07:29
 *********************************************/

nNurses=126;
maxConsec=2;
maxPresence=7;
maxHours=5;
minHours=1;
demand= [32 18 44 50 18 44 50 21 25 25 3 8 3 10 3 7 2 3 0 2 24 51 27 44  ];
